c DCNF-Autarky [version 0.0.1]. 
c Copyright (c) 2018-2019 Swansea University. 
c 
c Input QBF/DQBF path: Castellini18//toilet_c_04_01.4.qdimacs
c Output SAT Translation Path: /tmp/toilet_c_04_01.4.qdimacs-dcnfAutarky.dimacs
c Input Clause Count (tautology free): 185
c
c Performing E1-Autarky iteration.
c Remaining clauses count after E-Reduction: 175
c
c Performing A1-Autarky iteration.
c Running Lingeling ... 
c
c Remaining clauses count after A-Reduction: 175
c
c Input Parameter (command line, file): 
c input filename   Castellini18//toilet_c_04_01.4.qdimacs
c output filename  /tmp/toilet_c_04_01.4.qdimacs-dcnfAutarky.dimacs
c autarky level    1
c conformity level 0
c encoding type    2
c no.of var        58
c no.of clauses    185
c no.of taut cls   0
c 
c Output Parameters: 
c remaining no.of clauses  175
c
c filename pn pc autarky ntaut rpa rpe rpcdiff result
c "Castellini18//toilet_c_04_01.4.qdimacs" 58 185 "E1+A1" 0 2 51 10 "RED" 
p cnf 58 175
e 24 25 26 27 28 29 30 31 32 33 34 35 36 37 38 39 40 41 42 43 0
a 48 49 0
e 1 2 3 4 5 6 7 8 9 10 11 12 13 14 15 16 17 18 19 20 21 22 23 44 45 46 47 50 51 52 53 54 55 56 57 58 0
-48 -50 49 0
-48 49 51 0
-48 -52 49 0
-48 -53 49 0
-49 48 50 0
-49 -51 48 0
-49 -52 48 0
-49 -53 48 0
-50 48 49 0
-51 48 49 0
-52 48 49 0
48 49 53 0
-48 -49 -50 0
-48 -49 -51 0
-48 -49 52 0
-48 -49 -53 0
-54 0
-55 0
-56 0
-57 0
-58 0
-24 -58 0
-24 -54 0
-4 -25 0
-1 -25 0
-5 -26 0
-2 -26 0
-28 -55 0
-28 -58 0
-9 -29 0
-4 -29 0
-10 -30 0
-5 -30 0
-32 -56 0
-32 -58 0
-14 -33 0
-4 -33 0
-15 -34 0
-5 -34 0
-36 -57 0
-36 -58 0
-19 -38 0
-4 -38 0
-20 -40 0
-5 -40 0
-37 58 0
-39 4 0
-41 5 0
-24 4 0
-7 -24 0
-24 1 0
-25 5 0
-8 -25 0
-25 2 0
-26 6 0
-26 -44 0
-26 3 0
-28 9 0
-12 -28 0
-28 4 0
-29 10 0
-13 -29 0
-29 5 0
-30 11 0
-30 -45 0
-30 6 0
-32 14 0
-17 -32 0
-32 4 0
-33 15 0
-18 -33 0
-33 5 0
-34 16 0
-34 -46 0
-34 6 0
-36 19 0
-22 -36 0
-36 4 0
-38 20 0
-23 -38 0
-38 5 0
-40 21 0
-40 -47 0
-40 6 0
-4 -37 0
-5 -39 0
-6 -41 0
-1 24 54 0
-2 1 25 0
-3 2 26 0
-54 1 0
-1 2 0
-2 3 0
-4 24 28 32 36 58 0
-5 4 25 29 33 38 0
-6 5 26 30 34 40 0
-58 4 37 0
-4 5 39 0
-5 6 41 0
-7 53 0
-8 7 0
-44 8 0
-53 7 24 0
-7 8 25 0
-8 26 44 0
-9 28 55 0
-10 9 29 0
-11 10 30 0
-55 9 0
-9 10 0
-10 11 0
-12 50 0
-13 12 0
-45 13 0
-50 12 28 0
-12 13 29 0
-13 30 45 0
-14 32 56 0
-15 14 33 0
-16 15 34 0
-56 14 0
-14 15 0
-15 16 0
-17 51 0
-18 17 0
-46 18 0
-51 17 32 0
-17 18 33 0
-18 34 46 0
-19 36 57 0
-20 19 38 0
-21 20 40 0
-57 19 0
-19 20 0
-20 21 0
-22 52 0
-23 22 0
-47 23 0
-52 22 36 0
-22 23 38 0
-23 40 47 0
-24 -28 0
-25 -29 0
-26 -30 0
-24 -32 0
-25 -33 0
-26 -34 0
-24 -36 0
-25 -38 0
-26 -40 0
-24 -37 0
-25 -39 0
-26 -41 0
-28 -32 0
-29 -33 0
-30 -34 0
-28 -36 0
-29 -38 0
-30 -40 0
-28 -37 0
-29 -39 0
-30 -41 0
-32 -36 0
-33 -38 0
-34 -40 0
-32 -37 0
-33 -39 0
-34 -41 0
-36 -37 0
-38 -39 0
-40 -41 0
-44 0
-45 0
-46 0
-47 0
